0 0 0 0
0 1 0 0
0 2 0 0
0 3 0 0
0 4 0 45
0 5 0 4
0 6 0 4
0 7 0 5
0 8 0 9
0 9 0 5
0 10 0 11
0 11 0 14
0 12 0 4
0 13 0 24
0 14 0 34
0 15 0 1
0 16 0 24
0 17 0 47
0 18 0 63
0 19 0 1
0 20 0 5
0 21 0 34
0 22 0 52
0 23 0 3
0 24 0 12
0 25 0 5
0 26 0 29
0 27 0 32
0 28 0 6
0 29 0 9
0 30 0 32
0 31 0 6
0 32 0 10
0 33 0 65
0 34 0 37
0 35 0 11
0 36 0 3
0 37 0 10
0 38 0 24
0 39 0 20
0 40 0 16
0 41 0 26
0 42 0 42
0 43 0 41
0 44 0 29
0 45 0 76
0 46 0 55
0 47 0 32
0 48 0 38
0 49 0 42
0 50 0 16
0 51 0 29
0 52 0 71
0 53 0 16
0 54 0 33
0 55 0 12
0 56 0 43
0 57 0 11
0 58 0 22
0 59 0 38
0 60 0 37
0 61 0 16
0 62 0 73
0 63 0 45
0 64 0 31
0 65 0 52
0 66 0 37
0 67 0 19
0 68 0 54
0 69 0 62
0 70 0 81
0 71 0 14
0 72 0 16
0 73 0 54
0 74 0 70
0 75 0 22
0 76 0 53
0 77 0 50
0 78 0 33
0 79 0 50
0 80 0 49
0 81 0 72
0 82 0 6
0 83 0 89
0 84 0 40
0 85 0 63
0 86 0 47
0 87 0 53
0 88 0 69
0 89 0 61
0 90 0 43
0 91 0 84
0 92 0 62
0 93 0 70
0 94 0 66
0 95 0 58
0 96 0 93
0 97 0 52
0 98 0 83
0 99 0 73
0 100 0 81
0 101 0 81
0 102 0 32
0 103 0 56
0 104 0 81
0 105 0 77
0 106 0 77
0 107 0 56
0 108 0 84
0 109 0 64
0 110 0 80
0 111 0 41
0 112 0 84
0 113 0 69
0 114 0 66
0 115 0 81
0 116 0 88
0 117 0 89
0 118 0 94
0 119 0 92
0 120 0 97
0 121 0 102
